(set-logic QF_NRA)
(declare-fun skoX () Real)
(declare-fun pi () Real)
(declare-fun skoY () Real)
(assert (and (<= (+ (* (- 97988462755208211166396416000000) (* skoX skoX)) (* 32662820918402737055465472000000 (* skoX skoX skoX skoX)) (* (- 4355042789120364940728729600000) (* skoX skoX skoX skoX skoX skoX)) (* 311074484937168924337766400000 (* skoX skoX skoX skoX skoX skoX skoX skoX)) (* (- 13825532663874174415011840000) (* skoX skoX skoX skoX skoX skoX skoX skoX skoX skoX)) (* 418955535268914376212480000 (* skoX skoX skoX skoX skoX skoX skoX skoX skoX skoX skoX skoX)) (* (- 9207813961954162114560000) (* skoX skoX skoX skoX skoX skoX skoX skoX skoX skoX skoX skoX skoX skoX)) (* 153458882696203628544000 (* skoX skoX skoX skoX skoX skoX skoX skoX skoX skoX skoX skoX skoX skoX skoX skoX)) (* (- 2003702713496580096000) (* skoX skoX skoX skoX skoX skoX skoX skoX skoX skoX skoX skoX skoX skoX skoX skoX skoX skoX)) (* 20913585952728268800 (* skoX skoX skoX skoX skoX skoX skoX skoX skoX skoX skoX skoX skoX skoX skoX skoX skoX skoX skoX skoX)) (* (- 175663559341670400) (* skoX skoX skoX skoX skoX skoX skoX skoX skoX skoX skoX skoX skoX skoX skoX skoX skoX skoX skoX skoX skoX skoX)) (* 1185693776467200 (* skoX skoX skoX skoX skoX skoX skoX skoX skoX skoX skoX skoX skoX skoX skoX skoX skoX skoX skoX skoX skoX skoX skoX skoX)) (* (- 6422860604160) (* skoX skoX skoX skoX skoX skoX skoX skoX skoX skoX skoX skoX skoX skoX skoX skoX skoX skoX skoX skoX skoX skoX skoX skoX skoX skoX)) (* 28008066240 (* skoX skoX skoX skoX skoX skoX skoX skoX skoX skoX skoX skoX skoX skoX skoX skoX skoX skoX skoX skoX skoX skoX skoX skoX skoX skoX skoX skoX)) (* (- 98934528) (* skoX skoX skoX skoX skoX skoX skoX skoX skoX skoX skoX skoX skoX skoX skoX skoX skoX skoX skoX skoX skoX skoX skoX skoX skoX skoX skoX skoX skoX skoX)) (* 283668 (* skoX skoX skoX skoX skoX skoX skoX skoX skoX skoX skoX skoX skoX skoX skoX skoX skoX skoX skoX skoX skoX skoX skoX skoX skoX skoX skoX skoX skoX skoX skoX skoX)) (* (- 644) (* skoX skoX skoX skoX skoX skoX skoX skoX skoX skoX skoX skoX skoX skoX skoX skoX skoX skoX skoX skoX skoX skoX skoX skoX skoX skoX skoX skoX skoX skoX skoX skoX skoX skoX)) (* skoX skoX skoX skoX skoX skoX skoX skoX skoX skoX skoX skoX skoX skoX skoX skoX skoX skoX skoX skoX skoX skoX skoX skoX skoX skoX skoX skoX skoX skoX skoX skoX skoX skoX skoX skoX)) 0) (and (not (<= (+ (* (- 1) skoX) skoY) 0)) (and (<= (* (- 10) skoX) (- 1)) (and (not (<= (* (- 10000000) pi) (- 31415927))) (and (not (<= (* 5000000 pi) 15707963)) (<= (+ (* (- 5) pi) (* 10 skoY)) (- 2))))))))
(set-info :status sat)
(check-sat)
